n_res = 2;
rcap = [23, 48];
rtype = [1, 1];
n_tasks = 18;
modes = [ {1, 2, 3}, {4, 5, 6}, {7, 8, 9}, {10, 11, 12}, {13, 14, 15}, {16, 17, 18}, {19, 20, 21}, {22, 23, 24}, {25, 26, 27}, {28, 29, 30}, {31, 32, 33}, {34, 35, 36}, {37, 38, 39}, {40, 41, 42}, {43, 44, 45}, {46, 47, 48}, {49, 50, 51}, {52, 53, 54} ];
succ = [ {4, 7, 11}, {14}, {5, 8, 10}, {6, 8}, {7, 12, 15}, {9, 16}, {14, 17}, {13, 16, 18}, {13, 18}, {12, 17}, {12, 13}, {14}, {15}, {16, 18}, {17}, {}, {}, {} ];
n_opt = 54;
dur = [1, 3, 9, 5, 7, 10, 4, 5, 7, 2, 7, 8, 6, 6, 9, 2, 8, 9, 1, 1, 10, 1, 2, 3, 2, 7, 10, 4, 8, 9, 2, 6, 9, 1, 5, 9, 7, 9, 9, 5, 7, 10, 1, 1, 10, 4, 5, 9, 2, 3, 5, 4, 10, 10];
rreq = [|  0,  8,  7,  0,  0,  1,  0,  5,  0,  0,  0,  2, 10,  0,  9,  0,  0,  2,  0,  6,  4,  9,  0,  0,  3,  0,  2,  7,  0,  4,  5,  0,  4,  0,  5,  0,  9,  0,  4,  0,  8,  4,  7,  0,  0, 10,  0,  9,  0,  7,  4,  0,  0,  4
        |  1,  0,  0,  8,  6,  0,  8,  0,  6,  8,  7,  0,  0,  8,  0,  7,  6,  0,  4,  0,  0,  0,  8,  7,  0,  5,  0,  0,  9,  0,  0,  8,  0,  4,  0,  1,  0,  3,  0,  4,  0,  0,  0,  7,  5,  0,  6,  0,  3,  0,  0,  4,  3,  0 |];
